(declare-const in0 Int)
(declare-const in2 Int)
(declare-const in1 Int)
(declare-const in4 Int)
(declare-const in3 Int)
(declare-const in6 Int)
(declare-const in5 Int)
(declare-const in8 Int)
(declare-const in7 Int)
(declare-const in11 Int)
(declare-const in10 Int)
(declare-const in9 Int)
(declare-const in13 Int)
(declare-const in12 Int)
(declare-const in15 Int)
(declare-const in14 Int)
(declare-const in17 Int)
(declare-const in16 Int)
(declare-const in18 Int)

(assert (and (and (and (and (and (and (and (and (and (and (and (and (and (and (and (and (and  ( <  in0 in3)  ( <  in1 in0))  ( <  in2 in5))  ( <  in3 in2))  ( <  in4 in7))  ( <  in5 in4))  ( <  in6 in9))  ( <  in7 in6))  ( <  in8 in11))  ( <  in9 in8))  ( <  in10 in13))  ( <  in11 in10))  ( <  in12 in15))  ( <  in13 in12))  ( <  in14 in17))  ( <  in15 in14))  ( <  in16 in18))  ( <  in17 in16)))

(check-sat)
(get-model)